# Solution for model r5_t27_m6_4 Batch Number: 5
# Finished Task: 26 / 27
# Makespan: 534.0, Total Distance: 590.0, Total Time: 2.1428
# R O S F Batch
0 0 8 0.0 0.0 -1
1 1 20 0.0 0.0 -1
2 2 11 0.0 0.0 -1
3 3 16 0.0 0.0 -1
4 4 26 0.0 0.0 -1
5 1 13 320.0 340.0 0
6 0 14 227.0 250.0 0
7 0 6 185.0 214.0 0
8 0 7 34.0 66.0 0
9 4 -1 394.0 415.0 4
10 0 19 372.0 407.0 3
11 2 17 314.0 340.0 0
12 4 31 308.0 340.0 0
13 1 -1 340.0 372.0 1
14 0 23 264.0 298.0 0
15 2 18 437.0 473.0 2
16 3 21 122.0 160.0 0
17 2 15 396.0 418.0 1
18 2 -1 513.0 534.0 4
19 0 -1 440.0 462.0 3
20 1 22 242.0 270.0 0
21 3 24 172.0 197.0 0
22 1 5 285.0 310.0 0
23 0 10 319.0 351.0 2
24 3 25 250.0 282.0 0
25 3 28 306.0 340.0 0
26 4 29 112.0 138.0 0
27 -1 -1 -1.0 -1.0 2
28 3 30 394.0 418.0 1
29 4 12 203.0 223.0 0
30 3 -1 463.0 492.0 3
31 4 9 364.0 384.0 4
